feasible solution found by trivial heuristic after 0.1 seconds, objective value 0.000000e+00
presolving:
(round 1, fast)       138 del vars, 138 del conss, 0 add conss, 14292 chg bounds, 0 chg sides, 0 chg coeffs, 0 upgd conss, 0 impls, 17178 clqs
(round 2, fast)       138 del vars, 138 del conss, 0 add conss, 21438 chg bounds, 0 chg sides, 0 chg coeffs, 0 upgd conss, 0 impls, 17178 clqs
(round 3, fast)       3711 del vars, 3711 del conss, 0 add conss, 21438 chg bounds, 0 chg sides, 0 chg coeffs, 0 upgd conss, 0 impls, 17178 clqs
(round 4, fast)       9310 del vars, 5737 del conss, 0 add conss, 21438 chg bounds, 0 chg sides, 0 chg coeffs, 0 upgd conss, 0 impls, 17178 clqs
(round 5, fast)       11336 del vars, 5737 del conss, 0 add conss, 21438 chg bounds, 1547 chg sides, 0 chg coeffs, 0 upgd conss, 0 impls, 17178 clqs
(round 6, fast)       12883 del vars, 7284 del conss, 0 add conss, 21438 chg bounds, 1547 chg sides, 0 chg coeffs, 0 upgd conss, 0 impls, 17178 clqs
(round 7, fast)       14430 del vars, 7284 del conss, 0 add conss, 21438 chg bounds, 1547 chg sides, 0 chg coeffs, 0 upgd conss, 0 impls, 17178 clqs
   (0.3s) running MILP presolver
   (0.3s) MILP presolver found nothing
(round 8, exhaustive) 14430 del vars, 7872 del conss, 0 add conss, 21438 chg bounds, 2135 chg sides, 0 chg coeffs, 0 upgd conss, 0 impls, 17178 clqs
(round 9, exhaustive) 14430 del vars, 7872 del conss, 0 add conss, 21438 chg bounds, 2135 chg sides, 0 chg coeffs, 16590 upgd conss, 0 impls, 17178 clqs
   (0.6s) probing: 51/138 (37.0%) - 0 fixings, 0 aggregations, 0 implications, 0 bound changes
   (0.6s) probing aborted: 50/50 successive totally useless probings
   (0.7s) symmetry computation started: requiring (bin +, int -, cont +), (fixed: bin -, int +, cont -)
   (0.7s) no symmetry present
presolving (10 rounds: 10 fast, 3 medium, 3 exhaustive):
 14430 deleted vars, 7872 deleted constraints, 0 added constraints, 21438 tightened bounds, 0 added holes, 2135 changed sides, 0 changed coefficients
 0 implications, 17178 cliques
presolved problem has 138 variables (138 bin, 0 int, 0 impl, 0 cont) and 16590 constraints
  16590 constraints of type <setppc>
transformed objective value is always integral (scale: 1)
Presolving Time: 0.67

 time | node  | left  |LP iter|LP it/n|mem/heur|mdpt |vars |cons |rows |cuts |sepa|confs|strbr|  dualbound   | primalbound  |  gap   | compl. 
t 0.7s|     1 |     0 |     0 |     - | trivial|   0 | 138 |  16k|   0 |   0 |  0 |   0 |   0 | 6.362000e+03 | 0.000000e+00 |    Inf | unknown
p 0.8s|     1 |     0 |     0 |     - |  clique|   0 | 138 |  16k|  16k|   0 |  0 |   0 |   0 | 6.362000e+03 | 5.760000e+02 |1004.51%| unknown
p 0.8s|     1 |     0 |     0 |     - |   locks|   0 | 138 |  16k|  16k|   0 |  0 |   0 |   0 | 6.362000e+03 | 5.790000e+02 | 998.79%| unknown
  1.5s|     1 |     0 |  1430 |     - |   131M |   0 | 138 |  16k|  16k|   0 |  0 |   0 |   0 | 1.148363e+03 | 5.790000e+02 |  98.34%| unknown
  1.7s|     1 |     0 |  1588 |     - |   134M |   0 | 138 |  16k|  16k|   1 |  1 |   0 |   0 | 1.144688e+03 | 5.790000e+02 |  97.70%| unknown
  1.8s|     1 |     0 |  1748 |     - |   136M |   0 | 138 |  16k|  16k|   2 |  2 |   0 |   0 | 1.142304e+03 | 5.790000e+02 |  97.29%| unknown
  1.9s|     1 |     0 |  1856 |     - |   140M |   0 | 138 |  16k|  16k|   3 |  3 |   0 |   0 | 1.141533e+03 | 5.790000e+02 |  97.16%| unknown
  2.0s|     1 |     0 |  1978 |     - |   141M |   0 | 138 |  16k|  16k|   4 |  4 |   0 |   0 | 1.140750e+03 | 5.790000e+02 |  97.02%| unknown
  2.1s|     1 |     0 |  2111 |     - |   144M |   0 | 138 |  16k|  16k|   5 |  5 |   0 |   0 | 1.140288e+03 | 5.790000e+02 |  96.94%| unknown
  2.2s|     1 |     0 |  2270 |     - |   147M |   0 | 138 |  16k|  16k|   6 |  6 |   0 |   0 | 1.139887e+03 | 5.790000e+02 |  96.87%| unknown
  2.4s|     1 |     0 |  2400 |     - |   149M |   0 | 138 |  16k|  16k|   7 |  7 |   0 |   0 | 1.139726e+03 | 5.790000e+02 |  96.84%| unknown
  2.5s|     1 |     0 |  2574 |     - |   152M |   0 | 138 |  16k|  16k|   8 |  8 |   0 |   0 | 1.139419e+03 | 5.790000e+02 |  96.79%| unknown
  2.6s|     1 |     0 |  2701 |     - |   153M |   0 | 138 |  16k|  16k|   9 |  9 |   0 |   0 | 1.139036e+03 | 5.790000e+02 |  96.72%| unknown
  2.7s|     1 |     0 |  2863 |     - |   157M |   0 | 138 |  16k|  16k|  10 | 10 |   0 |   0 | 1.138514e+03 | 5.790000e+02 |  96.63%| unknown
  2.8s|     1 |     0 |  2993 |     - |   159M |   0 | 138 |  16k|  16k|  12 | 11 |   0 |   0 | 1.138190e+03 | 5.790000e+02 |  96.58%| unknown
 time | node  | left  |LP iter|LP it/n|mem/heur|mdpt |vars |cons |rows |cuts |sepa|confs|strbr|  dualbound   | primalbound  |  gap   | compl. 
  2.9s|     1 |     0 |  3053 |     - |   161M |   0 | 138 |  16k|  16k|  13 | 12 |   0 |   0 | 1.138007e+03 | 5.790000e+02 |  96.55%| unknown
  3.0s|     1 |     0 |  3102 |     - |   162M |   0 | 138 |  16k|  16k|  14 | 13 |   0 |   0 | 1.137940e+03 | 5.790000e+02 |  96.54%| unknown
  3.0s|     1 |     0 |  3164 |     - |   164M |   0 | 138 |  16k|  16k|  15 | 14 |   0 |   0 | 1.137875e+03 | 5.790000e+02 |  96.52%| unknown
  3.1s|     1 |     0 |  3244 |     - |   166M |   0 | 138 |  16k|  16k|  16 | 15 |   0 |   0 | 1.137674e+03 | 5.790000e+02 |  96.49%| unknown
  3.2s|     1 |     0 |  3290 |     - |   167M |   0 | 138 |  16k|  16k|  17 | 16 |   0 |   0 | 1.137630e+03 | 5.790000e+02 |  96.48%| unknown
  3.2s|     1 |     0 |  3332 |     - |   169M |   0 | 138 |  16k|  16k|  18 | 17 |   0 |   0 | 1.137599e+03 | 5.790000e+02 |  96.48%| unknown
  3.3s|     1 |     0 |  3374 |     - |   171M |   0 | 138 |  16k|  16k|  19 | 18 |   0 |   0 | 1.137567e+03 | 5.790000e+02 |  96.47%| unknown
  3.4s|     1 |     0 |  3433 |     - |   173M |   0 | 138 |  16k|  16k|  21 | 19 |   0 |   0 | 1.137520e+03 | 5.790000e+02 |  96.46%| unknown
  3.4s|     1 |     0 |  3486 |     - |   174M |   0 | 138 |  16k|  16k|  22 | 20 |   0 |   0 | 1.137501e+03 | 5.790000e+02 |  96.46%| unknown
  3.5s|     1 |     0 |  3502 |     - |   175M |   0 | 138 |  16k|  16k|  23 | 21 |   0 |   0 | 1.137490e+03 | 5.790000e+02 |  96.46%| unknown
  3.5s|     1 |     0 |  3525 |     - |   175M |   0 | 138 |  16k|  16k|  24 | 22 |   0 |   0 | 1.137479e+03 | 5.790000e+02 |  96.46%| unknown
  3.6s|     1 |     0 |  3555 |     - |   175M |   0 | 138 |  16k|  16k|  25 | 23 |   0 |   0 | 1.137469e+03 | 5.790000e+02 |  96.45%| unknown
  3.6s|     1 |     0 |  3583 |     - |   175M |   0 | 138 |  16k|  16k|  26 | 24 |   0 |   0 | 1.137464e+03 | 5.790000e+02 |  96.45%| unknown
  3.7s|     1 |     0 |  3593 |     - |   175M |   0 | 138 |  16k|  16k|  27 | 25 |   0 |   0 | 1.137462e+03 | 5.790000e+02 |  96.45%| unknown
d 4.2s|     1 |     0 |  4536 |     - |farkasdi|   0 | 138 |  16k|  16k|   0 | 25 |   0 |   0 | 1.137462e+03 | 7.520000e+02 |  51.26%| unknown
 time | node  | left  |LP iter|LP it/n|mem/heur|mdpt |vars |cons |rows |cuts |sepa|confs|strbr|  dualbound   | primalbound  |  gap   | compl. 
  4.2s|     1 |     0 |  4536 |     - |   175M |   0 | 138 |  16k|  16k|  27 | 25 |   0 |   0 | 1.137462e+03 | 7.520000e+02 |  51.26%| unknown
 15.4s|     1 |     2 |  4536 |     - |   175M |   0 | 138 |  16k|  16k|  27 | 27 |   0 |  23 | 1.125016e+03 | 7.520000e+02 |  49.60%| unknown
*19.4s|     3 |     2 |  5263 | 840.0 |strongbr|   2 | 138 |  16k|  16k|  27 |  1 |   0 |  53 | 1.125016e+03 | 7.570000e+02 |  48.62%| unknown
*19.5s|     3 |     2 |  5263 | 840.0 |strongbr|   2 | 138 |  16k|  16k|  27 |  1 |   0 |  56 | 1.125016e+03 | 7.840000e+02 |  43.50%| unknown
*22.9s|     4 |     1 |  5545 | 654.0 |strongbr|   2 | 138 |  16k|  16k|  27 |  2 |   2 |  88 | 1.125016e+03 | 8.120000e+02 |  38.55%|  11.15%
*32.3s|     8 |     1 |  7114 | 504.4 |strongbr|   3 | 138 |  16k|  16k|  27 |  1 |   7 | 157 | 1.101454e+03 | 8.990000e+02 |  22.52%|  34.98%

SCIP Status        : problem is solved [optimal solution found]
Solving Time (sec) : 41.69
Solving Nodes      : 9
Primal Bound       : +8.99000000000000e+02 (102 solutions)
Dual Bound         : +8.99000000000000e+02
Gap                : 0.00 %
Solve Status: optimal
Solve Time: 41.70 seconds
